1 of 1 MIP starts provided solutions.
MIP start 'm1' defined initial solution with objective 153104.0000.
Tried aggregator 1 time.
MIP Presolve eliminated 0 rows and 1 columns.
Reduced MIP has 112650 rows, 75250 columns, and 19012500 nonzeros.
Reduced MIP has 37500 binaries, 0 generals, 0 SOSs, and 0 indicators.
Presolve time = 10.14 sec. (4948.80 ticks)
Probing time = 0.37 sec. (180.37 ticks)
Tried aggregator 1 time.
Reduced MIP has 112650 rows, 75250 columns, and 19012500 nonzeros.
Reduced MIP has 37500 binaries, 0 generals, 0 SOSs, and 0 indicators.
Presolve time = 12.79 sec. (5762.95 ticks)
Probing time = 0.34 sec. (180.35 ticks)
Clique table members: 150.
MIP emphasis: balance optimality and feasibility.
MIP search method: dynamic search.
Parallel mode: none, using 1 thread.
Root relaxation solution time = 26.15 sec. (18734.32 ticks)

        Nodes                                         Cuts/
   Node  Left     Objective  IInf  Best Integer    Best Bound    ItCnt     Gap

*     0+    0                       153104.0000   2.88089e+07    23901     --- 
      0     0   153129.1060    59   153104.0000   153129.1060    23901    0.02%
      0     0   153120.0078    54   153104.0000      Cuts: 19    24137    0.01%
      0     0   153119.1884    61   153104.0000       Cuts: 4    24221    0.01%

Flow cuts applied:  9
Mixed integer rounding cuts applied:  8
Gomory fractional cuts applied:  4

Root node processing (before b&c):
  Real time             =  105.13 sec. (74160.61 ticks)
Sequential b&c:
  Real time             =    0.00 sec. (0.00 ticks)
                          ------------
Total (root+branch&cut) =  105.13 sec. (74160.61 ticks)
